TYPE : Vertex Cover
DIMENSION: 29
EDGE_DATA_SECTION:
0 3
0 10
0 11
0 13
0 17
0 18
1 4
1 8
1 9
1 10
1 18
1 20
1 21
1 24
2 4
2 7
2 8
2 14
2 15
2 16
2 17
2 21
2 22
2 28
3 10
3 18
3 25
4 5
4 6
4 12
4 21
4 22
4 25
4 26
5 6
5 9
5 18
5 20
5 21
5 24
5 27
5 28
6 9
6 12
6 14
6 19
6 20
7 8
7 12
7 20
7 21
7 23
7 25
7 27
8 20
8 21
8 22
8 26
8 27
9 15
9 16
9 24
9 26
10 16
10 17
10 21
10 23
10 28
11 15
11 16
11 17
11 21
11 24
11 25
11 26
12 14
12 16
12 27
13 14
13 16
13 19
13 20
13 21
13 22
13 27
14 21
14 22
14 24
15 19
15 26
16 18
16 21
16 22
16 27
17 22
17 23
17 27
18 19
18 20
18 22
18 24
18 26
18 27
19 20
19 27
20 25
20 27
20 28
21 22
21 24
21 27
22 23
22 24
22 27
23 24
-1
VERTEX_DEGREE:
6.0 8.0 10.0 4.0 9.0 9.0 7.0 8.0 8.0 7.0 8.0 8.0 6.0 8.0 7.0 5.0 10.0 7.0 11.0 6.0 11.0 14.0 12.0 5.0 9.0 5.0 6.0 12.0 4.0
VERTEX_COVER:
3 4 6 7 8 9 10 11 13 14 15 16 17 18 20 21 22 24 27 28
EOF
